8
0, 936, 607, 571, 162, 397, 262, 867
936, 0, 947, 794, 788, 1044, 742, 248
607, 947, 0, 152, 640, 282, 734, 739
571, 794, 152, 0, 565, 345, 645, 589
162, 788, 640, 565, 0, 491, 112, 744
397, 1044, 282, 345, 491, 0, 602, 882
262, 742, 734, 645, 112, 602, 0, 734
867, 248, 739, 589, 744, 882, 734, 0
